 &input
  prefix = 'na'
  outdir = '/Users/dgprendergast/tmp'
  trace_tol=1.d-8
  debug = .true.
 /
