 &control
  calculation = 'scf'
  title = 'Sodium bcc'
  restart_mode = 'from_scratch'
  wf_collect = .true.
  tstress = .true.
  tprnfor = .true.
  outdir = '/Users/dgprendergast/tmp'
  prefix = 'na'
  pseudo_dir = '/Users/dgprendergast/dev/ShirleyForQE/SHIRLEY/examples/example_shirley01/pseudo'
 /
 &system
    ibrav=  3, celldm(1)=7.9935
    nat=  1, ntyp= 1
    ecutwfc =30.0
    occupations='smearing', degauss=7.d-6
 /
 &electrons
  conv_thr = 1.d-12
  diagonalization = 'david'
 /
 ATOMIC_SPECIES
   Na  26.0  Na.cpi.UPF
 ATOMIC_POSITIONS crystal
  Na    0.0000000  0.0000000  0.0000000
  K_POINTS automatic
  4 4 4 1 1 1
